max:100x12 + 100x13 - 10q1 - 20q2;

-5 <= x12 <= 5;

-2 <= x13 <= 2;

-5 <= x23 <= 5;

-2 <= x24 <= 2;

-5 <= x34 <= 5;

x12 = x24 + x23;
x13 + x23 = x34;

y12 + z12 + 2y13 + 2z13 + y23 + z23 + 2y24 + 2z24 + 3y34 + 3z34 <= 4q1 + 5q2;
y12 + z12 + 2y13 + 2z13 + 2y23 + 2z23 + y24 + z24 + 4y34 + 4z34 <= 2q1 + 2q2;
5y12 + 5z12 + 0y13 + 0z13 + 0y23 + 0z23 + 0y24 + 0z24 + 6y34 + 6z34 <= 0q1 + 1q2;

y12 - z12 = x12;
y13 - z13 = x13;
y23 - z23 = x23;
y34 - z34 = x34;
y24 - z24 = x24;

y12 >= 0;
y13 >= 0;
y23 >= 0;
y24 >= 0;
y34 >= 0;
z12 >= 0;
z13 >= 0;
z23 >= 0;
z24 >= 0;
z34 >= 0;

q1 >= 0;
q2 >= 0;